SCIP version 5.0.0 [precision: 8 byte] [memory: block] [mode: optimized] [LP solver: NONE] [GitHash: 3bbd232]
Copyright (C) 2002-2017 Konrad-Zuse-Zentrum fuer Informationstechnik Berlin (ZIB)

External codes: 
  Readline EditLine w  GNU library for command line editing (gnu.org/s/readline)
  CppAD 20160000.1     Algorithmic Differentiation of C++ algorithms developed by B. Bell (www.coin-or.org/CppAD)
  ZLIB 1.2.5           General purpose compression library by J. Gailly and M. Adler (zlib.net)
  GMP 6.1.2            GNU Multiple Precision Arithmetic Library developed by T. Granlund (gmplib.org)

user parameter file <scip.set> not found - using default parameters

read problem <../../Split_data/output/statG/0/1_sample_statG.logreg>
============

File name	:	../../Split_data/output/statG/0/1_sample_statG.logreg
Problem name 	:	1_sample_statG
Number of data	:	800
Number of var	:	61
The given data has linear dependence
13 sets of column vector are linearly dependent:

[dim=1] time: 0.035073
[dim=2] time: 0.082722
[dim=3] time: 0.121916
[dim=4] time: 0.161368
[dim=5] time: 0.204984
[dim=6] time: 0.266189
[dim=7] time: 0.307701
[dim=8] time: 0.355016
[dim=9] time: 0.404342
[dim=10] time: 0.444953
[dim=11] time: 0.486035
[dim=12] time: 0.526514
[dim=13] time: 0.566969
[dim=14] time: 0.607328
[dim=15] time: 0.648412
[dim=16] time: 0.689277
[dim=17] time: 0.729979
[dim=18] time: 0.774156
[dim=19] time: 0.811588
[dim=20] time: 0.849581
[dim=21] time: 0.88541
[dim=22] time: 0.920967
[dim=23] time: 0.961988
[dim=24] Time of forward = 0.992747sec.
AIC: 753.726
k: 23

[dim=48] time: 0.100917
[dim=47] time: 0.182494
[dim=46] time: 0.256778
[dim=45] time: 0.322765
[dim=44] time: 0.381541
[dim=43] time: 0.438271
[dim=42] time: 0.508831
[dim=41] time: 0.589615
[dim=40] time: 0.653182
[dim=39] time: 0.71318
[dim=38] time: 0.775969
[dim=37] time: 0.826171
[dim=36] time: 0.876817
[dim=35] time: 0.925922
[dim=34] time: 0.962283
[dim=33] time: 0.999354
[dim=32] time: 1.03413
[dim=31] time: 1.07766
[dim=30] time: 1.11997
[dim=29] time: 1.16328
[dim=28] time: 1.2049
[dim=27] time: 1.23886
[dim=26] Time of backward = 1.2793sec.
AIC: 761.837
k: 27
